DIMENSION :7
NODE_COORD_SECTION
1 3.9869700671073502 24.26220239348544
2 -10.340125268392853 46.69969193534408
3 19.26407588210084 2.789227368812803
4 14.432920192834601 -71.94668157816326
5 8.593704216793057 -93.88790780839709
6 54.92758932544427 62.63707515946146
7 3.4720791049326607 18.07049915613581
EOF
